p cnf 278 1936
89 106 108 119 220 0
122 144 223 0
68 125 148 0
98 128 130 228 0
83 88 231 0
138 157 0
55 90 0
146 245 0
30 72 85 118 0
101 132 136 152 187 0
76 113 0
23 77 115 0
94 159 160 0
120 161 162 168 170 0
141 143 171 172 175 0
96 154 177 180 0
104 182 0
69 149 167 0
67 70 73 116 0
133 134 151 0
64 111 126 0
62 80 87 0
56 58 59 60 93 155 0
52 53 137 169 0
51 153 174 0
47 48 49 50 179 181 0
41 42 43 45 46 0
36 37 107 0
150 163 0
33 34 35 65 71 0
26 27 29 31 131 0
24 25 63 99 102 0
21 22 75 95 0
18 20 61 74 78 84 0
184 185 186 189 190 0
121 191 192 193 194 0
142 173 176 195 196 0
97 105 178 183 197 198 0
199 201 203 204 205 0
109 114 207 208 0
123 166 210 212 213 0
117 215 216 218 0
135 219 221 0
222 224 0
112 129 147 0
81 226 248 0
156 250 0
91 229 230 232 0
82 139 233 234 235 236 0
44 237 238 0
164 239 240 241 0
66 242 0
32 38 243 244 0
103 145 246 0
79 86 247 0
-106 -200 0
-148 -200 0
-200 -249 0
-200 -251 0
-106 -148 0
-106 -249 0
-106 -251 0
-148 -249 0
-148 -251 0
-249 -251 0
-118 -136 0
-23 -118 0
-118 -252 0
-118 -159 0
-23 -136 0
-136 -252 0
-136 -159 0
-23 -252 0
-23 -159 0
-159 -252 0
-182 -253 0
-182 -209 0
-167 -182 0
-67 -182 0
-209 -253 0
-167 -253 0
-67 -253 0
-167 -209 0
-67 -209 0
-67 -167 0
-60 -87 0
-87 -169 0
-87 -174 0
-87 -179 0
-60 -169 0
-60 -174 0
-60 -179 0
-169 -174 0
-169 -179 0
-174 -179 0
-158 -229 0
-82 -158 0
-44 -158 0
-82 -229 0
-44 -229 0
-44 -82 0
-243 -254 0
-103 -243 0
-188 -243 0
-103 -254 0
-188 -254 0
-103 -188 0
-118 -200 0
-182 -200 0
-87 -200 0
-118 -182 0
-87 -118 0
-87 -182 0
-106 -136 0
-106 -253 0
-60 -106 0
-136 -253 0
-60 -136 0
-60 -253 0
-23 -148 0
-148 -209 0
-148 -169 0
-148 -158 0
-148 -243 0
-23 -209 0
-23 -169 0
-23 -158 0
-23 -243 0
-169 -209 0
-158 -209 0
-209 -243 0
-158 -169 0
-169 -243 0
-158 -243 0
-249 -252 0
-167 -249 0
-174 -249 0
-229 -249 0
-249 -254 0
-167 -252 0
-174 -252 0
-229 -252 0
-252 -254 0
-167 -174 0
-167 -229 0
-167 -254 0
-174 -229 0
-174 -254 0
-229 -254 0
-159 -251 0
-67 -251 0
-179 -251 0
-82 -251 0
-103 -251 0
-67 -159 0
-159 -179 0
-82 -159 0
-103 -159 0
-67 -179 0
-67 -82 0
-67 -103 0
-82 -179 0
-103 -179 0
-82 -103 0
-44 -188 0
-108 -214 0
-122 -214 0
-128 -214 0
-138 -214 0
-108 -122 0
-108 -128 0
-108 -138 0
-122 -128 0
-122 -138 0
-128 -138 0
-90 -267 0
-140 -267 0
-39 -267 0
-146 -267 0
-90 -140 0
-39 -90 0
-90 -146 0
-39 -140 0
-140 -146 0
-39 -146 0
-104 -255 0
-104 -206 0
-104 -256 0
-104 -116 0
-104 -134 0
-104 -257 0
-206 -255 0
-255 -256 0
-116 -255 0
-134 -255 0
-255 -257 0
-206 -256 0
-116 -206 0
-134 -206 0
-206 -257 0
-116 -256 0
-134 -256 0
-256 -257 0
-116 -134 0
-116 -257 0
-134 -257 0
-80 -155 0
-80 -258 0
-53 -80 0
-80 -181 0
-46 -80 0
-80 -261 0
-155 -258 0
-53 -155 0
-155 -181 0
-46 -155 0
-155 -261 0
-53 -258 0
-181 -258 0
-46 -258 0
-258 -261 0
-53 -181 0
-46 -53 0
-53 -261 0
-46 -181 0
-181 -261 0
-46 -261 0
-65 -163 0
-31 -163 0
-99 -163 0
-84 -163 0
-163 -184 0
-163 -191 0
-31 -65 0
-65 -99 0
-65 -84 0
-65 -184 0
-65 -191 0
-31 -99 0
-31 -84 0
-31 -184 0
-31 -191 0
-84 -99 0
-99 -184 0
-99 -191 0
-84 -184 0
-84 -191 0
-184 -191 0
-97 -142 0
-142 -262 0
-142 -199 0
-142 -210 0
-97 -262 0
-97 -199 0
-97 -210 0
-199 -262 0
-210 -262 0
-199 -210 0
-147 -248 0
-147 -250 0
-147 -263 0
-147 -233 0
-248 -250 0
-248 -263 0
-233 -248 0
-250 -263 0
-233 -250 0
-233 -263 0
-214 -267 0
-104 -214 0
-80 -214 0
-163 -214 0
-142 -214 0
-147 -214 0
-104 -267 0
-80 -267 0
-163 -267 0
-142 -267 0
-147 -267 0
-80 -104 0
-104 -163 0
-104 -142 0
-104 -147 0
-80 -163 0
-80 -142 0
-80 -147 0
-142 -163 0
-147 -163 0
-142 -147 0
-90 -108 0
-108 -255 0
-108 -155 0
-65 -108 0
-97 -108 0
-108 -248 0
-90 -255 0
-90 -155 0
-65 -90 0
-90 -97 0
-90 -248 0
-155 -255 0
-65 -255 0
-97 -255 0
-248 -255 0
-65 -155 0
-97 -155 0
-155 -248 0
-65 -97 0
-65 -248 0
-97 -248 0
-122 -140 0
-122 -206 0
-122 -258 0
-31 -122 0
-122 -262 0
-122 -250 0
-140 -206 0
-140 -258 0
-31 -140 0
-140 -262 0
-140 -250 0
-206 -258 0
-31 -206 0
-206 -262 0
-206 -250 0
-31 -258 0
-258 -262 0
-250 -258 0
-31 -262 0
-31 -250 0
-250 -262 0
-53 -256 0
-99 -256 0
-199 -256 0
-256 -263 0
-53 -99 0
-53 -199 0
-53 -263 0
-99 -199 0
-99 -263 0
-199 -263 0
-116 -181 0
-84 -116 0
-116 -210 0
-116 -233 0
-84 -181 0
-181 -210 0
-181 -233 0
-84 -210 0
-84 -233 0
-210 -233 0
-39 -128 0
-128 -134 0
-46 -128 0
-128 -184 0
-39 -134 0
-39 -46 0
-39 -184 0
-46 -134 0
-134 -184 0
-46 -184 0
-138 -146 0
-138 -257 0
-138 -261 0
-138 -191 0
-146 -257 0
-146 -261 0
-146 -191 0
-257 -261 0
-191 -257 0
-191 -261 0
-89 -264 0
-125 -264 0
-264 -265 0
-264 -266 0
-89 -125 0
-89 -265 0
-89 -266 0
-125 -265 0
-125 -266 0
-265 -266 0
-72 -132 0
-72 -77 0
-19 -72 0
-72 -94 0
-77 -132 0
-19 -132 0
-94 -132 0
-19 -77 0
-77 -94 0
-19 -94 0
-25 -95 0
-25 -78 0
-78 -95 0
-173 -178 0
-173 -201 0
-109 -173 0
-123 -173 0
-173 -215 0
-178 -201 0
-109 -178 0
-123 -178 0
-178 -215 0
-109 -201 0
-123 -201 0
-201 -215 0
-109 -123 0
-109 -215 0
-123 -215 0
-129 -226 0
-127 -129 0
-91 -129 0
-129 -139 0
-129 -268 0
-127 -226 0
-91 -226 0
-139 -226 0
-226 -268 0
-91 -127 0
-127 -139 0
-127 -268 0
-91 -139 0
-91 -268 0
-139 -268 0
-40 -239 0
-38 -40 0
-28 -40 0
-40 -145 0
-40 -247 0
-38 -239 0
-28 -239 0
-145 -239 0
-239 -247 0
-28 -38 0
-38 -145 0
-38 -247 0
-28 -145 0
-28 -247 0
-145 -247 0
-72 -264 0
-173 -264 0
-129 -264 0
-40 -264 0
-72 -173 0
-72 -129 0
-40 -72 0
-129 -173 0
-40 -173 0
-40 -129 0
-89 -132 0
-89 -178 0
-89 -226 0
-89 -239 0
-132 -178 0
-132 -226 0
-132 -239 0
-178 -226 0
-178 -239 0
-226 -239 0
-77 -125 0
-25 -125 0
-125 -201 0
-125 -127 0
-38 -125 0
-25 -77 0
-77 -201 0
-77 -127 0
-38 -77 0
-25 -201 0
-25 -127 0
-25 -38 0
-127 -201 0
-38 -201 0
-38 -127 0
-19 -265 0
-95 -265 0
-109 -265 0
-91 -265 0
-28 -265 0
-19 -95 0
-19 -109 0
-19 -91 0
-19 -28 0
-95 -109 0
-91 -95 0
-28 -95 0
-91 -109 0
-28 -109 0
-28 -91 0
-94 -266 0
-78 -266 0
-123 -266 0
-139 -266 0
-145 -266 0
-78 -94 0
-94 -123 0
-94 -139 0
-94 -145 0
-78 -123 0
-78 -139 0
-78 -145 0
-123 -139 0
-123 -145 0
-139 -145 0
-215 -268 0
-215 -247 0
-247 -268 0
-154 -161 0
-93 -269 0
-45 -93 0
-93 -270 0
-45 -269 0
-269 -270 0
-45 -270 0
-29 -35 0
-35 -185 0
-35 -121 0
-29 -185 0
-29 -121 0
-121 -185 0
-197 -271 0
-35 -93 0
-93 -197 0
-35 -197 0
-29 -269 0
-269 -271 0
-29 -271 0
-45 -161 0
-161 -185 0
-45 -185 0
-154 -270 0
-121 -154 0
-121 -270 0
-68 -272 0
-68 -273 0
-68 -130 0
-68 -88 0
-272 -273 0
-130 -272 0
-88 -272 0
-130 -273 0
-88 -273 0
-88 -130 0
-115 -274 0
-115 -160 0
-115 -162 0
-115 -171 0
-160 -274 0
-162 -274 0
-171 -274 0
-160 -162 0
-160 -171 0
-162 -171 0
-52 -153 0
-50 -52 0
-43 -52 0
-52 -107 0
-50 -153 0
-43 -153 0
-107 -153 0
-43 -50 0
-50 -107 0
-43 -107 0
-75 -102 0
-74 -102 0
-102 -186 0
-102 -275 0
-74 -75 0
-75 -186 0
-75 -275 0
-74 -186 0
-74 -275 0
-186 -275 0
-176 -203 0
-176 -207 0
-176 -212 0
-203 -207 0
-203 -212 0
-207 -212 0
-57 -112 0
-112 -230 0
-112 -234 0
-57 -230 0
-57 -234 0
-230 -234 0
-112 -176 0
-68 -115 0
-52 -68 0
-68 -102 0
-68 -203 0
-57 -68 0
-52 -115 0
-102 -115 0
-115 -203 0
-57 -115 0
-52 -102 0
-52 -203 0
-52 -57 0
-102 -203 0
-57 -102 0
-57 -203 0
-272 -274 0
-153 -272 0
-75 -272 0
-207 -272 0
-230 -272 0
-153 -274 0
-75 -274 0
-207 -274 0
-230 -274 0
-75 -153 0
-153 -207 0
-153 -230 0
-75 -207 0
-75 -230 0
-207 -230 0
-160 -273 0
-50 -273 0
-74 -273 0
-212 -273 0
-234 -273 0
-50 -160 0
-74 -160 0
-160 -212 0
-160 -234 0
-50 -74 0
-50 -212 0
-50 -234 0
-74 -212 0
-74 -234 0
-212 -234 0
-130 -162 0
-43 -130 0
-130 -186 0
-43 -162 0
-162 -186 0
-43 -186 0
-88 -171 0
-88 -107 0
-88 -275 0
-107 -171 0
-171 -275 0
-107 -275 0
-55 -260 0
-165 -260 0
-245 -260 0
-55 -165 0
-55 -245 0
-165 -245 0
-85 -101 0
-85 -141 0
-85 -96 0
-101 -141 0
-96 -101 0
-96 -141 0
-149 -211 0
-64 -211 0
-211 -225 0
-64 -149 0
-149 -225 0
-64 -225 0
-22 -24 0
-24 -276 0
-24 -192 0
-22 -276 0
-22 -192 0
-192 -276 0
-183 -195 0
-195 -204 0
-195 -208 0
-183 -204 0
-183 -208 0
-204 -208 0
-240 -277 0
-244 -277 0
-277 -278 0
-240 -244 0
-240 -278 0
-244 -278 0
-85 -260 0
-195 -260 0
-260 -277 0
-85 -195 0
-85 -277 0
-195 -277 0
-55 -101 0
-55 -183 0
-55 -240 0
-101 -183 0
-101 -240 0
-183 -240 0
-24 -211 0
-204 -211 0
-211 -244 0
-24 -204 0
-24 -244 0
-204 -244 0
-22 -149 0
-149 -208 0
-149 -278 0
-22 -208 0
-22 -278 0
-208 -278 0
-141 -165 0
-64 -165 0
-165 -276 0
-64 -141 0
-141 -276 0
-64 -276 0
-96 -245 0
-225 -245 0
-192 -245 0
-96 -225 0
-96 -192 0
-192 -225 0
-168 -172 0
-168 -177 0
-172 -177 0
-110 -202 0
-124 -202 0
-73 -202 0
-133 -202 0
-126 -202 0
-202 -227 0
-110 -124 0
-73 -110 0
-110 -133 0
-110 -126 0
-110 -227 0
-73 -124 0
-124 -133 0
-124 -126 0
-124 -227 0
-73 -133 0
-73 -126 0
-73 -227 0
-126 -133 0
-133 -227 0
-126 -227 0
-59 -92 0
-59 -137 0
-49 -59 0
-42 -59 0
-37 -59 0
-17 -59 0
-92 -137 0
-49 -92 0
-42 -92 0
-37 -92 0
-17 -92 0
-49 -137 0
-42 -137 0
-37 -137 0
-17 -137 0
-42 -49 0
-37 -49 0
-17 -49 0
-37 -42 0
-17 -42 0
-17 -37 0
-27 -34 0
-34 -63 0
-20 -34 0
-34 -189 0
-16 -34 0
-34 -193 0
-27 -63 0
-20 -27 0
-27 -189 0
-16 -27 0
-27 -193 0
-20 -63 0
-63 -189 0
-16 -63 0
-63 -193 0
-20 -189 0
-16 -20 0
-20 -193 0
-16 -189 0
-189 -193 0
-16 -193 0
-15 -105 0
-105 -205 0
-105 -213 0
-105 -117 0
-105 -135 0
-105 -222 0
-15 -205 0
-15 -213 0
-15 -117 0
-15 -135 0
-15 -222 0
-205 -213 0
-117 -205 0
-135 -205 0
-205 -222 0
-117 -213 0
-135 -213 0
-213 -222 0
-117 -135 0
-117 -222 0
-135 -222 0
-81 -156 0
-14 -81 0
-81 -235 0
-81 -259 0
-54 -81 0
-81 -237 0
-14 -156 0
-156 -235 0
-156 -259 0
-54 -156 0
-156 -237 0
-14 -235 0
-14 -259 0
-14 -54 0
-14 -237 0
-235 -259 0
-54 -235 0
-235 -237 0
-54 -259 0
-237 -259 0
-54 -237 0
-66 -164 0
-32 -164 0
-164 -246 0
-86 -164 0
-100 -164 0
-13 -164 0
-32 -66 0
-66 -246 0
-66 -86 0
-66 -100 0
-13 -66 0
-32 -246 0
-32 -86 0
-32 -100 0
-13 -32 0
-86 -246 0
-100 -246 0
-13 -246 0
-86 -100 0
-13 -86 0
-13 -100 0
-59 -202 0
-34 -202 0
-105 -202 0
-81 -202 0
-164 -202 0
-34 -59 0
-59 -105 0
-59 -81 0
-59 -164 0
-34 -105 0
-34 -81 0
-34 -164 0
-81 -105 0
-105 -164 0
-81 -164 0
-92 -110 0
-27 -110 0
-15 -110 0
-110 -156 0
-66 -110 0
-27 -92 0
-15 -92 0
-92 -156 0
-66 -92 0
-15 -27 0
-27 -156 0
-27 -66 0
-15 -156 0
-15 -66 0
-66 -156 0
-124 -137 0
-63 -124 0
-124 -205 0
-14 -124 0
-32 -124 0
-63 -137 0
-137 -205 0
-14 -137 0
-32 -137 0
-63 -205 0
-14 -63 0
-32 -63 0
-14 -205 0
-32 -205 0
-14 -32 0
-49 -73 0
-20 -73 0
-73 -213 0
-73 -235 0
-73 -246 0
-20 -49 0
-49 -213 0
-49 -235 0
-49 -246 0
-20 -213 0
-20 -235 0
-20 -246 0
-213 -235 0
-213 -246 0
-235 -246 0
-133 -168 0
-42 -168 0
-168 -189 0
-117 -168 0
-168 -259 0
-86 -168 0
-42 -133 0
-133 -189 0
-117 -133 0
-133 -259 0
-86 -133 0
-42 -189 0
-42 -117 0
-42 -259 0
-42 -86 0
-117 -189 0
-189 -259 0
-86 -189 0
-117 -259 0
-86 -117 0
-86 -259 0
-126 -172 0
-37 -172 0
-16 -172 0
-135 -172 0
-54 -172 0
-100 -172 0
-37 -126 0
-16 -126 0
-126 -135 0
-54 -126 0
-100 -126 0
-16 -37 0
-37 -135 0
-37 -54 0
-37 -100 0
-16 -135 0
-16 -54 0
-16 -100 0
-54 -135 0
-100 -135 0
-54 -100 0
-177 -227 0
-17 -177 0
-177 -193 0
-177 -222 0
-177 -237 0
-13 -177 0
-17 -227 0
-193 -227 0
-222 -227 0
-227 -237 0
-13 -227 0
-17 -193 0
-17 -222 0
-17 -237 0
-13 -17 0
-193 -222 0
-193 -237 0
-13 -193 0
-222 -237 0
-13 -222 0
-13 -237 0
-217 -220 0
-217 -223 0
-98 -217 0
-217 -231 0
-220 -223 0
-98 -220 0
-220 -231 0
-98 -223 0
-223 -231 0
-98 -231 0
-30 -152 0
-30 -113 0
-30 -120 0
-30 -143 0
-113 -152 0
-120 -152 0
-143 -152 0
-113 -120 0
-113 -143 0
-120 -143 0
-58 -62 0
-12 -62 0
-48 -62 0
-12 -58 0
-48 -58 0
-12 -48 0
-71 -150 0
-131 -150 0
-18 -150 0
-71 -131 0
-18 -71 0
-18 -131 0
-196 -198 0
-11 -196 0
-196 -216 0
-196 -219 0
-11 -198 0
-198 -216 0
-198 -219 0
-11 -216 0
-11 -219 0
-216 -219 0
-10 -241 0
-10 -242 0
-10 -79 0
-9 -10 0
-241 -242 0
-79 -241 0
-9 -241 0
-79 -242 0
-9 -242 0
-9 -79 0
-30 -217 0
-62 -217 0
-150 -217 0
-196 -217 0
-10 -217 0
-30 -62 0
-30 -150 0
-30 -196 0
-10 -30 0
-62 -150 0
-62 -196 0
-10 -62 0
-150 -196 0
-10 -150 0
-10 -196 0
-152 -220 0
-58 -220 0
-71 -220 0
-198 -220 0
-220 -241 0
-58 -152 0
-71 -152 0
-152 -198 0
-152 -241 0
-58 -71 0
-58 -198 0
-58 -241 0
-71 -198 0
-71 -241 0
-198 -241 0
-113 -223 0
-12 -223 0
-131 -223 0
-11 -223 0
-223 -242 0
-12 -113 0
-113 -131 0
-11 -113 0
-113 -242 0
-12 -131 0
-11 -12 0
-12 -242 0
-11 -131 0
-131 -242 0
-11 -242 0
-18 -48 0
-98 -120 0
-98 -216 0
-79 -98 0
-120 -216 0
-79 -120 0
-79 -216 0
-143 -231 0
-219 -231 0
-9 -231 0
-143 -219 0
-9 -143 0
-9 -219 0
-119 -144 0
-119 -228 0
-83 -119 0
-119 -157 0
-144 -228 0
-83 -144 0
-144 -157 0
-83 -228 0
-157 -228 0
-83 -157 0
-76 -187 0
-170 -187 0
-175 -187 0
-180 -187 0
-76 -170 0
-76 -175 0
-76 -180 0
-170 -175 0
-170 -180 0
-175 -180 0
-7 -8 0
-8 -69 0
-8 -70 0
-8 -151 0
-8 -111 0
-6 -8 0
-7 -69 0
-7 -70 0
-7 -151 0
-7 -111 0
-6 -7 0
-69 -70 0
-69 -151 0
-69 -111 0
-6 -69 0
-70 -151 0
-70 -111 0
-6 -70 0
-111 -151 0
-6 -151 0
-6 -111 0
-5 -56 0
-51 -56 0
-47 -56 0
-41 -56 0
-36 -56 0
-4 -56 0
-5 -51 0
-5 -47 0
-5 -41 0
-5 -36 0
-4 -5 0
-47 -51 0
-41 -51 0
-36 -51 0
-4 -51 0
-41 -47 0
-36 -47 0
-4 -47 0
-36 -41 0
-4 -41 0
-4 -36 0
-26 -33 0
-21 -33 0
-33 -61 0
-33 -190 0
-3 -33 0
-33 -194 0
-21 -26 0
-26 -61 0
-26 -190 0
-3 -26 0
-26 -194 0
-21 -61 0
-21 -190 0
-3 -21 0
-21 -194 0
-61 -190 0
-3 -61 0
-61 -194 0
-3 -190 0
-190 -194 0
-3 -194 0
-114 -166 0
-114 -218 0
-114 -221 0
-114 -224 0
-166 -218 0
-166 -221 0
-166 -224 0
-218 -221 0
-218 -224 0
-221 -224 0
-232 -236 0
-2 -232 0
-1 -232 0
-232 -238 0
-2 -236 0
-1 -236 0
-236 -238 0
-1 -2 0
-2 -238 0
-1 -238 0
-119 -187 0
-8 -119 0
-56 -119 0
-33 -119 0
-8 -187 0
-56 -187 0
-33 -187 0
-8 -56 0
-8 -33 0
-33 -56 0
-76 -144 0
-7 -144 0
-5 -144 0
-26 -144 0
-7 -76 0
-5 -76 0
-26 -76 0
-5 -7 0
-7 -26 0
-5 -26 0
-51 -69 0
-21 -69 0
-69 -114 0
-69 -232 0
-21 -51 0
-51 -114 0
-51 -232 0
-21 -114 0
-21 -232 0
-114 -232 0
-47 -70 0
-61 -70 0
-70 -166 0
-70 -236 0
-47 -61 0
-47 -166 0
-47 -236 0
-61 -166 0
-61 -236 0
-166 -236 0
-170 -228 0
-151 -228 0
-41 -228 0
-190 -228 0
-218 -228 0
-2 -228 0
-151 -170 0
-41 -170 0
-170 -190 0
-170 -218 0
-2 -170 0
-41 -151 0
-151 -190 0
-151 -218 0
-2 -151 0
-41 -190 0
-41 -218 0
-2 -41 0
-190 -218 0
-2 -190 0
-2 -218 0
-83 -175 0
-83 -111 0
-36 -83 0
-3 -83 0
-83 -221 0
-1 -83 0
-111 -175 0
-36 -175 0
-3 -175 0
-175 -221 0
-1 -175 0
-36 -111 0
-3 -111 0
-111 -221 0
-1 -111 0
-3 -36 0
-36 -221 0
-1 -36 0
-3 -221 0
-1 -3 0
-1 -221 0
-157 -180 0
-6 -157 0
-4 -157 0
-157 -194 0
-157 -224 0
-157 -238 0
-6 -180 0
-4 -180 0
-180 -194 0
-180 -224 0
-180 -238 0
-4 -6 0
-6 -194 0
-6 -224 0
-6 -238 0
-4 -194 0
-4 -224 0
-4 -238 0
-194 -224 0
-194 -238 0
-224 -238 0
-106 -200 0
-118 -200 0
-136 -200 0
-106 -118 0
-106 -136 0
-118 -136 0
-108 -214 0
-122 -214 0
-214 -267 0
-90 -214 0
-140 -214 0
-108 -122 0
-108 -267 0
-90 -108 0
-108 -140 0
-122 -267 0
-90 -122 0
-122 -140 0
-90 -267 0
-140 -267 0
-90 -140 0
-89 -264 0
-72 -264 0
-132 -264 0
-72 -89 0
-89 -132 0
-72 -132 0
-55 -260 0
-85 -260 0
-101 -260 0
-55 -85 0
-55 -101 0
-85 -101 0
-217 -220 0
-217 -223 0
-30 -217 0
-152 -217 0
-113 -217 0
-220 -223 0
-30 -220 0
-152 -220 0
-113 -220 0
-30 -223 0
-152 -223 0
-113 -223 0
-30 -152 0
-30 -113 0
-113 -152 0
-119 -144 0
-119 -187 0
-76 -119 0
-144 -187 0
-76 -144 0
-76 -187 0
-148 -249 0
-148 -251 0
-23 -148 0
-148 -252 0
-148 -159 0
-249 -251 0
-23 -249 0
-249 -252 0
-159 -249 0
-23 -251 0
-251 -252 0
-159 -251 0
-23 -252 0
-23 -159 0
-159 -252 0
-125 -265 0
-125 -266 0
-77 -125 0
-19 -125 0
-94 -125 0
-265 -266 0
-77 -265 0
-19 -265 0
-94 -265 0
-77 -266 0
-19 -266 0
-94 -266 0
-19 -77 0
-77 -94 0
-19 -94 0
-68 -272 0
-68 -273 0
-68 -115 0
-68 -274 0
-68 -160 0
-272 -273 0
-115 -272 0
-272 -274 0
-160 -272 0
-115 -273 0
-273 -274 0
-160 -273 0
-115 -274 0
-115 -160 0
-160 -274 0
-128 -138 0
-39 -128 0
-128 -146 0
-39 -138 0
-138 -146 0
-39 -146 0
-154 -161 0
-88 -130 0
-130 -162 0
-130 -171 0
-88 -162 0
-88 -171 0
-162 -171 0
-165 -245 0
-141 -165 0
-96 -165 0
-141 -245 0
-96 -245 0
-96 -141 0
-168 -172 0
-168 -177 0
-172 -177 0
-98 -231 0
-98 -120 0
-98 -143 0
-120 -231 0
-143 -231 0
-120 -143 0
-83 -228 0
-157 -228 0
-170 -228 0
-175 -228 0
-180 -228 0
-83 -157 0
-83 -170 0
-83 -175 0
-83 -180 0
-157 -170 0
-157 -175 0
-157 -180 0
-170 -175 0
-170 -180 0
-175 -180 0
-182 -253 0
-87 -182 0
-60 -182 0
-87 -253 0
-60 -253 0
-60 -87 0
-104 -255 0
-104 -206 0
-80 -104 0
-104 -155 0
-104 -258 0
-104 -163 0
-65 -104 0
-31 -104 0
-206 -255 0
-80 -255 0
-155 -255 0
-255 -258 0
-163 -255 0
-65 -255 0
-31 -255 0
-80 -206 0
-155 -206 0
-206 -258 0
-163 -206 0
-65 -206 0
-31 -206 0
-80 -155 0
-80 -258 0
-80 -163 0
-65 -80 0
-31 -80 0
-155 -258 0
-155 -163 0
-65 -155 0
-31 -155 0
-163 -258 0
-65 -258 0
-31 -258 0
-65 -163 0
-31 -163 0
-31 -65 0
-93 -269 0
-35 -93 0
-29 -93 0
-35 -269 0
-29 -269 0
-29 -35 0
-110 -202 0
-59 -202 0
-92 -202 0
-34 -202 0
-27 -202 0
-59 -110 0
-92 -110 0
-34 -110 0
-27 -110 0
-59 -92 0
-34 -59 0
-27 -59 0
-34 -92 0
-27 -92 0
-27 -34 0
-58 -62 0
-12 -62 0
-62 -150 0
-62 -71 0
-62 -131 0
-12 -58 0
-58 -150 0
-58 -71 0
-58 -131 0
-12 -150 0
-12 -71 0
-12 -131 0
-71 -150 0
-131 -150 0
-71 -131 0
-7 -8 0
-8 -56 0
-5 -8 0
-8 -33 0
-8 -26 0
-7 -56 0
-5 -7 0
-7 -33 0
-7 -26 0
-5 -56 0
-33 -56 0
-26 -56 0
-5 -33 0
-5 -26 0
-26 -33 0
-167 -209 0
-67 -209 0
-169 -209 0
-174 -209 0
-179 -209 0
-67 -167 0
-167 -169 0
-167 -174 0
-167 -179 0
-67 -169 0
-67 -174 0
-67 -179 0
-169 -174 0
-169 -179 0
-174 -179 0
-116 -256 0
-53 -256 0
-181 -256 0
-99 -256 0
-84 -256 0
-53 -116 0
-116 -181 0
-99 -116 0
-84 -116 0
-53 -181 0
-53 -99 0
-53 -84 0
-99 -181 0
-84 -181 0
-84 -99 0
-25 -95 0
-25 -78 0
-78 -95 0
-52 -153 0
-50 -52 0
-52 -102 0
-52 -75 0
-52 -74 0
-50 -153 0
-102 -153 0
-75 -153 0
-74 -153 0
-50 -102 0
-50 -75 0
-50 -74 0
-75 -102 0
-74 -102 0
-74 -75 0
-149 -211 0
-24 -211 0
-22 -211 0
-24 -149 0
-22 -149 0
-22 -24 0
-73 -124 0
-124 -137 0
-49 -124 0
-63 -124 0
-20 -124 0
-73 -137 0
-49 -73 0
-63 -73 0
-20 -73 0
-49 -137 0
-63 -137 0
-20 -137 0
-49 -63 0
-20 -49 0
-20 -63 0
-18 -48 0
-69 -70 0
-51 -69 0
-47 -69 0
-21 -69 0
-61 -69 0
-51 -70 0
-47 -70 0
-21 -70 0
-61 -70 0
-47 -51 0
-21 -51 0
-51 -61 0
-21 -47 0
-47 -61 0
-21 -61 0
-134 -257 0
-46 -134 0
-134 -261 0
-134 -184 0
-134 -191 0
-46 -257 0
-257 -261 0
-184 -257 0
-191 -257 0
-46 -261 0
-46 -184 0
-46 -191 0
-184 -261 0
-191 -261 0
-184 -191 0
-45 -270 0
-45 -185 0
-45 -121 0
-185 -270 0
-121 -270 0
-121 -185 0
-43 -107 0
-43 -186 0
-43 -275 0
-107 -186 0
-107 -275 0
-186 -275 0
-64 -225 0
-64 -276 0
-64 -192 0
-225 -276 0
-192 -225 0
-192 -276 0
-126 -133 0
-133 -227 0
-42 -133 0
-37 -133 0
-17 -133 0
-133 -189 0
-16 -133 0
-133 -193 0
-126 -227 0
-42 -126 0
-37 -126 0
-17 -126 0
-126 -189 0
-16 -126 0
-126 -193 0
-42 -227 0
-37 -227 0
-17 -227 0
-189 -227 0
-16 -227 0
-193 -227 0
-37 -42 0
-17 -42 0
-42 -189 0
-16 -42 0
-42 -193 0
-17 -37 0
-37 -189 0
-16 -37 0
-37 -193 0
-17 -189 0
-16 -17 0
-17 -193 0
-16 -189 0
-189 -193 0
-16 -193 0
-111 -151 0
-6 -151 0
-41 -151 0
-36 -151 0
-4 -151 0
-151 -190 0
-3 -151 0
-151 -194 0
-6 -111 0
-41 -111 0
-36 -111 0
-4 -111 0
-111 -190 0
-3 -111 0
-111 -194 0
-6 -41 0
-6 -36 0
-4 -6 0
-6 -190 0
-3 -6 0
-6 -194 0
-36 -41 0
-4 -41 0
-41 -190 0
-3 -41 0
-41 -194 0
-4 -36 0
-36 -190 0
-3 -36 0
-36 -194 0
-4 -190 0
-3 -4 0
-4 -194 0
-3 -190 0
-190 -194 0
-3 -194 0
-97 -142 0
-142 -262 0
-142 -147 0
-142 -248 0
-142 -250 0
-97 -262 0
-97 -147 0
-97 -248 0
-97 -250 0
-147 -262 0
-248 -262 0
-250 -262 0
-147 -248 0
-147 -250 0
-248 -250 0
-173 -178 0
-129 -173 0
-173 -226 0
-40 -173 0
-173 -239 0
-129 -178 0
-178 -226 0
-40 -178 0
-178 -239 0
-129 -226 0
-40 -129 0
-129 -239 0
-40 -226 0
-226 -239 0
-40 -239 0
-197 -271 0
-112 -176 0
-183 -195 0
-195 -277 0
-195 -240 0
-183 -277 0
-183 -240 0
-240 -277 0
-15 -105 0
-81 -105 0
-105 -156 0
-105 -164 0
-66 -105 0
-15 -81 0
-15 -156 0
-15 -164 0
-15 -66 0
-81 -156 0
-81 -164 0
-66 -81 0
-156 -164 0
-66 -156 0
-66 -164 0
-196 -198 0
-11 -196 0
-10 -196 0
-196 -241 0
-196 -242 0
-11 -198 0
-10 -198 0
-198 -241 0
-198 -242 0
-10 -11 0
-11 -241 0
-11 -242 0
-10 -241 0
-10 -242 0
-241 -242 0
-158 -229 0
-82 -158 0
-158 -243 0
-158 -254 0
-103 -158 0
-82 -229 0
-229 -243 0
-229 -254 0
-103 -229 0
-82 -243 0
-82 -254 0
-82 -103 0
-243 -254 0
-103 -243 0
-103 -254 0
-199 -210 0
-199 -263 0
-199 -233 0
-210 -263 0
-210 -233 0
-233 -263 0
-109 -201 0
-123 -201 0
-127 -201 0
-91 -201 0
-139 -201 0
-38 -201 0
-28 -201 0
-145 -201 0
-109 -123 0
-109 -127 0
-91 -109 0
-109 -139 0
-38 -109 0
-28 -109 0
-109 -145 0
-123 -127 0
-91 -123 0
-123 -139 0
-38 -123 0
-28 -123 0
-123 -145 0
-91 -127 0
-127 -139 0
-38 -127 0
-28 -127 0
-127 -145 0
-91 -139 0
-38 -91 0
-28 -91 0
-91 -145 0
-38 -139 0
-28 -139 0
-139 -145 0
-28 -38 0
-38 -145 0
-28 -145 0
-203 -207 0
-203 -212 0
-57 -203 0
-203 -230 0
-203 -234 0
-207 -212 0
-57 -207 0
-207 -230 0
-207 -234 0
-57 -212 0
-212 -230 0
-212 -234 0
-57 -230 0
-57 -234 0
-230 -234 0
-204 -208 0
-204 -244 0
-204 -278 0
-208 -244 0
-208 -278 0
-244 -278 0
-205 -213 0
-14 -205 0
-205 -235 0
-32 -205 0
-205 -246 0
-14 -213 0
-213 -235 0
-32 -213 0
-213 -246 0
-14 -235 0
-14 -32 0
-14 -246 0
-32 -235 0
-235 -246 0
-32 -246 0
-114 -166 0
-114 -232 0
-114 -236 0
-166 -232 0
-166 -236 0
-232 -236 0
-44 -188 0
-215 -268 0
-215 -247 0
-247 -268 0
-117 -135 0
-117 -222 0
-117 -259 0
-54 -117 0
-117 -237 0
-86 -117 0
-100 -117 0
-13 -117 0
-135 -222 0
-135 -259 0
-54 -135 0
-135 -237 0
-86 -135 0
-100 -135 0
-13 -135 0
-222 -259 0
-54 -222 0
-222 -237 0
-86 -222 0
-100 -222 0
-13 -222 0
-54 -259 0
-237 -259 0
-86 -259 0
-100 -259 0
-13 -259 0
-54 -237 0
-54 -86 0
-54 -100 0
-13 -54 0
-86 -237 0
-100 -237 0
-13 -237 0
-86 -100 0
-13 -86 0
-13 -100 0
-216 -219 0
-79 -216 0
-9 -216 0
-79 -219 0
-9 -219 0
-9 -79 0
-218 -221 0
-218 -224 0
-2 -218 0
-1 -218 0
-218 -238 0
-221 -224 0
-2 -221 0
-1 -221 0
-221 -238 0
-2 -224 0
-1 -224 0
-224 -238 0
-1 -2 0
-2 -238 0
-1 -238 0
